p edge 510 509
e 1 406
e 1 307
e 2 382
e 2 195
e 2 505
e 3 328
e 4 104
e 4 113
e 4 37
e 5 509
e 5 235
e 6 364
e 6 349
e 7 58
e 8 429
e 8 497
e 9 13
e 10 251
e 10 58
e 11 447
e 11 302
e 12 380
e 13 141
e 14 75
e 14 288
e 15 126
e 16 63
e 16 48
e 17 61
e 17 269
e 17 455
e 17 441
e 18 115
e 19 72
e 20 378
e 21 305
e 21 318
e 22 53
e 23 159
e 23 374
e 24 189
e 24 339
e 25 342
e 25 441
e 26 51
e 26 504
e 26 300
e 27 347
e 28 374
e 28 345
e 29 266
e 29 118
e 30 413
e 30 496
e 30 503
e 30 81
e 30 492
e 31 324
e 31 463
e 31 85
e 32 481
e 32 278
e 32 383
e 33 355
e 33 116
e 33 174
e 34 138
e 34 109
e 35 118
e 35 506
e 35 346
e 36 188
e 36 418
e 36 96
e 36 305
e 37 228
e 37 170
e 37 264
e 38 480
e 38 52
e 38 276
e 39 473
e 39 227
e 40 380
e 41 171
e 41 194
e 41 417
e 41 44
e 42 261
e 42 318
e 42 215
e 43 457
e 44 375
e 45 54
e 45 303
e 46 280
e 47 253
e 47 387
e 48 53
e 48 493
e 48 475
e 49 470
e 49 50
e 50 145
e 50 338
e 51 478
e 51 282
e 52 201
e 52 289
e 53 142
e 55 396
e 55 446
e 56 485
e 56 128
e 57 347
e 57 79
e 58 175
e 58 476
e 59 365
e 59 350
e 60 217
e 62 232
e 62 207
e 62 483
e 64 165
e 64 499
e 65 393
e 65 66
e 66 338
e 67 112
e 68 462
e 68 203
e 68 344
e 69 120
e 70 259
e 71 340
e 71 261
e 72 314
e 72 230
e 72 217
e 73 309
e 74 313
e 74 136
e 76 102
e 77 367
e 78 333
e 79 102
e 79 192
e 80 132
e 80 250
e 80 98
e 81 223
e 81 272
e 82 114
e 82 322
e 82 406
e 83 391
e 83 277
e 84 187
e 84 126
e 84 237
e 85 425
e 85 195
e 86 122
e 86 209
e 87 360
e 88 234
e 88 274
e 89 280
e 90 215
e 91 113
e 92 394
e 92 260
e 93 230
e 94 488
e 94 143
e 95 302
e 96 436
e 97 143
e 98 469
e 98 99
e 98 152
e 99 184
e 99 486
e 100 415
e 101 446
e 102 312
e 103 354
e 103 366
e 105 134
e 105 343
e 106 389
e 107 413
e 108 216
e 108 344
e 109 298
e 109 431
e 109 476
e 110 460
e 110 247
e 110 443
e 111 133
e 111 491
e 112 152
e 112 496
e 113 254
e 113 336
e 113 302
e 115 358
e 116 446
e 117 191
e 117 396
e 118 284
e 118 453
e 119 217
e 120 199
e 120 444
e 121 442
e 121 207
e 122 264
e 122 435
e 123 158
e 123 161
e 123 136
e 124 415
e 124 450
e 125 466
e 125 402
e 126 238
e 127 315
e 127 445
e 127 292
e 127 297
e 128 237
e 128 448
e 129 359
e 129 498
e 130 175
e 131 143
e 134 479
e 135 320
e 135 369
e 135 498
e 136 156
e 136 426
e 136 200
e 136 203
e 137 218
e 137 378
e 137 394
e 138 280
e 139 241
e 139 507
e 140 391
e 141 173
e 143 204
e 143 457
e 143 237
e 144 195
e 146 184
e 147 233
e 147 217
e 148 434
e 149 193
e 149 505
e 150 177
e 151 173
e 151 380
e 151 223
e 153 321
e 153 431
e 154 331
e 154 235
e 155 310
e 157 414
e 158 412
e 160 366
e 160 205
e 161 383
e 161 367
e 162 274
e 162 295
e 162 268
e 162 508
e 162 476
e 163 236
e 164 275
e 166 307
e 166 251
e 167 259
e 167 432
e 168 473
e 169 194
e 170 441
e 172 283
e 174 373
e 174 410
e 175 329
e 176 425
e 177 322
e 178 317
e 179 454
e 180 442
e 181 186
e 182 190
e 182 221
e 182 217
e 183 296
e 185 361
e 186 332
e 186 407
e 186 450
e 187 213
e 190 214
e 192 333
e 192 225
e 195 202
e 195 239
e 196 198
e 196 306
e 197 438
e 198 356
e 200 495
e 203 256
e 205 330
e 205 510
e 206 279
e 206 443
e 206 463
e 207 482
e 208 233
e 209 468
e 209 249
e 210 326
e 211 472
e 211 240
e 212 428
e 215 337
e 217 352
e 217 311
e 217 357
e 219 360
e 220 326
e 220 460
e 221 338
e 222 480
e 224 350
e 225 461
e 226 332
e 227 414
e 229 312
e 230 275
e 231 326
e 232 265
e 233 381
e 233 499
e 235 310
e 235 319
e 236 374
e 240 306
e 240 443
e 242 474
e 243 296
e 243 467
e 243 414
e 244 423
e 244 485
e 245 300
e 245 258
e 246 328
e 247 249
e 248 353
e 249 419
e 249 459
e 250 368
e 252 286
e 253 341
e 255 351
e 256 303
e 257 392
e 257 391
e 258 471
e 260 328
e 260 312
e 261 492
e 262 394
e 263 398
e 265 444
e 267 421
e 268 290
e 270 413
e 271 358
e 271 427
e 271 447
e 272 404
e 272 437
e 273 390
e 273 393
e 275 372
e 275 487
e 276 288
e 276 510
e 277 432
e 277 461
e 277 334
e 277 429
e 278 377
e 281 468
e 282 424
e 282 439
e 283 483
e 284 360
e 284 449
e 285 402
e 285 339
e 286 291
e 287 449
e 288 317
e 289 319
e 290 299
e 291 416
e 291 485
e 292 456
e 293 452
e 293 296
e 294 368
e 297 501
e 297 305
e 299 327
e 299 337
e 300 325
e 301 336
e 302 450
e 304 453
e 306 353
e 308 469
e 309 330
e 311 428
e 316 382
e 321 397
e 322 348
e 323 383
e 324 363
e 328 398
e 329 379
e 331 477
e 331 344
e 333 440
e 334 490
e 335 345
e 335 504
e 339 368
e 343 458
e 343 367
e 344 438
e 346 442
e 349 351
e 349 370
e 350 454
e 354 434
e 357 491
e 361 441
e 362 483
e 363 451
e 369 389
e 370 388
e 370 449
e 371 464
e 371 479
e 373 484
e 374 387
e 374 474
e 375 491
e 375 510
e 376 385
e 377 502
e 384 489
e 385 476
e 385 480
e 386 494
e 386 435
e 387 433
e 390 422
e 391 400
e 395 468
e 399 403
e 399 473
e 401 489
e 402 475
e 402 498
e 402 500
e 405 471
e 408 505
e 409 426
e 410 442
e 411 414
e 414 442
e 418 420
e 421 501
e 430 494
e 436 505
e 437 471
e 439 489
e 448 473
e 452 465
e 454 464
e 456 483
e 475 497
e 479 507
